#######################



#######################
Set parameter TimeLimit to value 300
Set parameter SoftMemLimit to value 125
Set parameter LogFile to value 1003-TimeLimit300-k16x240-7.log
Set parameter Seed to value 7
Using license file /opt/gurobi/gurobi.lic

Gurobi Optimizer version 10.0.3 build v10.0.3rc0 (linux64)
Copyright (c) 2023, Gurobi Optimization, LLC

Read MPS format model from file /miplib2010/k16x240.mps.bz2
Reading time = 0.00 seconds
k16x240: 256 rows, 480 columns, 960 nonzeros

CPU model: Intel(R) Xeon(R) E-2388G CPU @ 3.20GHz, instruction set [SSE2|AVX|AVX2|AVX512]
Thread count: 8 physical cores, 16 logical processors, using up to 16 threads

Optimize a model with 256 rows, 480 columns and 960 nonzeros
Model fingerprint: 0x4e80885f
Variable types: 240 continuous, 240 integer (240 binary)
Coefficient statistics:
  Matrix range     [1e+00, 1e+03]
  Objective range  [1e+00, 1e+03]
  Bounds range     [1e+00, 1e+03]
  RHS range        [4e+00, 4e+02]
Found heuristic solution: objective 24303.000000
Presolve time: 0.00s
Presolved: 256 rows, 480 columns, 960 nonzeros
Variable types: 240 continuous, 240 integer (240 binary)

Root relaxation: objective 2.769838e+03, 51 iterations, 0.00 seconds (0.00 work units)

    Nodes    |    Current Node    |     Objective Bounds      |     Work
 Expl Unexpl |  Obj  Depth IntInf | Incumbent    BestBd   Gap | It/Node Time

     0     0 2769.83800    0   14 24303.0000 2769.83800  88.6%     -    0s
H    0     0                    11359.000000 2769.83800  75.6%     -    0s
H    0     0                    11195.000000 2769.83800  75.3%     -    0s
H    0     0                    11074.000000 8084.69631  27.0%     -    0s
     0     0 8084.69631    0   26 11074.0000 8084.69631  27.0%     -    0s
H    0     0                    10916.000000 8084.69631  25.9%     -    0s
     0     0 8528.16906    0   24 10916.0000 8528.16906  21.9%     -    0s
H    0     0                    10851.000000 8539.15185  21.3%     -    0s
     0     0 8539.15185    0   34 10851.0000 8539.15185  21.3%     -    0s
     0     0 8548.03675    0   29 10851.0000 8548.03675  21.2%     -    0s
H    0     0                    10779.000000 8733.37944  19.0%     -    0s
     0     0 8733.37944    0   34 10779.0000 8733.37944  19.0%     -    0s
H    0     0                    10717.000000 8733.37944  18.5%     -    0s
     0     0 8793.89382    0   28 10717.0000 8793.89382  17.9%     -    0s
     0     0 8813.48501    0   28 10717.0000 8813.48501  17.8%     -    0s
     0     0 8817.87868    0   34 10717.0000 8817.87868  17.7%     -    0s
     0     0 8901.54339    0   42 10717.0000 8901.54339  16.9%     -    0s
     0     0 8917.84419    0   36 10717.0000 8917.84419  16.8%     -    0s
     0     0 8927.03747    0   37 10717.0000 8927.03747  16.7%     -    0s
     0     0 8928.22308    0   35 10717.0000 8928.22308  16.7%     -    0s
     0     0 9023.02259    0   30 10717.0000 9023.02259  15.8%     -    0s
     0     0 9044.11303    0   37 10717.0000 9044.11303  15.6%     -    0s
     0     0 9050.75251    0   35 10717.0000 9050.75251  15.5%     -    0s
     0     0 9109.62915    0   27 10717.0000 9109.62915  15.0%     -    0s
     0     0 9109.62915    0   27 10717.0000 9109.62915  15.0%     -    0s
     0     2 9109.62915    0   27 10717.0000 9109.62915  15.0%     -    0s
H  180   196                    10711.000000 9250.51676  13.6%  28.7    0s
H  185   196                    10678.000000 9250.51676  13.4%  28.1    0s
H  687   555                    10674.000000 9311.88639  12.8%  19.1    0s
 36802 13027     cutoff   27      10674.0000 10087.6567  5.49%  23.7    5s
 79687 17104     cutoff   26      10674.0000 10284.0400  3.65%  24.6   10s
 119716 11636     cutoff   31      10674.0000 10440.8339  2.18%  24.8   15s

Cutting planes:
  Gomory: 1
  Lift-and-project: 15
  Cover: 79
  Implied bound: 36
  MIR: 185
  Flow cover: 301
  Flow path: 45
  Inf proof: 1
  Zero half: 13
  Network: 55
  Relax-and-lift: 3

Explored 143110 nodes (3453700 simplex iterations) in 17.30 seconds (20.63 work units)
Thread count was 16 (of 16 available processors)

Solution count 10: 10674 10678 10711 ... 11359

Optimal solution found (tolerance 1.00e-04)
Best objective 1.067400000000e+04, best bound 1.067400000000e+04, gap 0.0000%
